Route #1: 25 46 40 11 3 20 16
Route #2: 4 21 53 30 49 44 28 6
Route #3: 2 1 48 22 36 31
Route #4: 10 54 5 45 42
Route #5: 14 47 23 58 24 34
Route #6: 32 9 51 12 56 43 50
Route #7: 39 26 17 37 57 27 19 18
Route #8: 7 29 13 8 15 55 35
Route #9: 41 33 38 59 52
Cost 1354
Time 0.103129
